data;

# Nodes: 25, Edges: 63

set N := 0 1 2 3 4 5 6 7 8 9 10 11 12 13 14 15 16 17 18 19 20 21 22 23 24 ;
set M := 25 26 ;
set F := f0 ;

param p := 
0 84.0189
1 96.7211
2 96.3771
3 70.4441
4 74.1324
5 50.8933
6 56.7336
7 73.9554
8 90.1193
9 70.2958
10 76.9287
11 77.2241
12 70.1951
13 69.3722
14 75.0732
15 58.3794
16 53.7571
17 83.589
18 99.2403
19 76.8915
20 56.9218
21 73.0445
22 67.413
23 81.2156
24 65.0383
25 12.5758
26 12.5235
;

param b :
  0 1 2 3 4 5 6 7 8 9 10 11 12 13 14 15 16 17 18 19 20 21 22 23 24 25 26 :=
0 0 0 0 0 0 0 0 0 0 0 0 0 0 0 80.564 68.013 0 0 0 90.3971 0 67.178 0 0 0 0 0 
1 0 0 0 0 78.6056 0 0 0 0 0 0 0 52.3708 0 0 0 90.817 0 50.698 0 0 0 0 0 0 0 0 
2 0 0 0 0 0 0 0 0 61.0248 0 0 0 0 0 0 0 55.3838 0 0 0 0 0 0 77.0263 0 100 0 
3 0 0 0 0 0 0 0 0 0 0 0 83.4954 89.5129 0 77.054 69.1559 0 0 0 0 0 0 0 0 0 100 0 
4 0 78.6056 0 0 0 59.2544 0 0 0 0 83.0614 0 57.8067 0 0 0 0 0 0 0 0 94.5997 0 0 0 100 100 
5 0 0 0 0 59.2544 0 57.8989 92.8119 86.1455 0 0 0 0 0 92.5717 93.4678 0 0 0 57.7393 0 53.4124 0 0 0 0 100 
6 0 0 0 0 0 57.8989 0 0 0 0 0 0 0 0 63.791 0 0 59.1423 0 90.2391 0 87.7658 70.5225 0 0 0 100 
7 0 0 0 0 0 92.8119 0 0 64.367 0 0 0 0 0 0 90.9316 0 0 0 0 64.867 0 71.2135 0 0 0 100 
8 0 0 61.0248 0 0 86.1455 0 64.367 0 0 0 0 0 0 0 0 0 0 0 50.6399 0 0 0 0 0 100 100 
9 0 0 0 0 0 0 0 0 0 0 0 0 89.2085 0 0 0 59.0077 97.1495 0 0 96.4966 0 0 0 0 100 100 
10 0 0 0 0 83.0614 0 0 0 0 0 0 0 65.5663 0 52.4255 0 0 0 0 0 0 0 95.9274 65.1568 0 0 0 
11 0 0 0 83.4954 0 0 0 0 0 0 0 0 0 0 0 0 0 0 0 0 0 0 95.3228 0 0 100 0 
12 0 52.3708 0 89.5129 57.8067 0 0 0 0 89.2085 65.5663 0 0 0 0 0 0 0 55.1372 0 0 89.5612 0 0 94.0457 100 0 
13 0 0 0 0 0 0 0 0 0 0 0 0 0 0 0 82.018 0 0 99.2336 0 0 99.3837 0 0 0 0 100 
14 80.564 0 0 77.054 0 92.5717 63.791 0 0 0 52.4255 0 0 0 0 95.2804 97.2408 0 0 0 0 0 0 0 0 0 100 
15 68.013 0 0 69.1559 0 93.4678 0 90.9316 0 0 0 0 0 82.018 95.2804 0 0 97.9792 0 0 0 0 0 0 0 0 0 
16 0 90.817 55.3838 0 0 0 0 0 0 59.0077 0 0 0 0 97.2408 0 0 53.1689 0 0 0 0 76.7055 0 69.7532 0 100 
17 0 0 0 0 0 0 59.1423 0 0 97.1495 0 0 0 0 0 97.9792 53.1689 0 0 0 0 0 0 84.2835 0 100 0 
18 0 50.698 0 0 0 0 0 0 0 0 0 0 55.1372 99.2336 0 0 0 0 0 0 0 0 0 0 95.4664 100 0 
19 90.3971 0 0 0 0 57.7393 90.2391 0 50.6399 0 0 0 0 0 0 0 0 0 0 0 0 51.2059 0 89.1251 0 100 0 
20 0 0 0 0 0 0 0 64.867 0 96.4966 0 0 0 0 0 0 0 0 0 0 0 0 50.4229 0 0 100 100 
21 67.178 0 0 0 94.5997 53.4124 87.7658 0 0 0 0 0 89.5612 99.3837 0 0 0 0 0 51.2059 0 0 85.7697 0 0 0 0 
22 0 0 0 0 0 0 70.5225 71.2135 0 0 95.9274 95.3228 0 0 0 0 76.7055 0 0 0 50.4229 85.7697 0 0 0 100 0 
23 0 0 77.0263 0 0 0 0 0 0 0 65.1568 0 0 0 0 0 0 84.2835 0 89.1251 0 0 0 0 0 0 0 
24 0 0 0 0 0 0 0 0 0 0 0 0 94.0457 0 0 0 69.7532 0 95.4664 0 0 0 0 0 0 100 100 
25 0 0 100 100 100 0 0 0 100 100 0 100 100 0 0 0 0 100 100 100 100 0 100 0 100 0 0 
26 0 0 0 0 100 100 100 100 100 100 0 0 0 100 100 0 100 0 0 0 100 0 0 0 100 0 0 
;

param alpha :
  0 1 2 3 4 5 6 7 8 9 10 11 12 13 14 15 16 17 18 19 20 21 22 23 24 25 26 :=
0 1 1 1 1 1 1 1 1 1 1 1 1 1 1 80.564 68.013 1 1 1 90.3971 1 67.178 1 1 1 1 1 
1 1 1 1 1 78.6056 1 1 1 1 1 1 1 52.3708 1 1 1 90.817 1 50.698 1 1 1 1 1 1 1 1 
2 1 1 1 1 1 1 1 1 61.0248 1 1 1 1 1 1 1 55.3838 1 1 1 1 1 1 77.0263 1 100 1 
3 1 1 1 1 1 1 1 1 1 1 1 83.4954 89.5129 1 77.054 69.1559 1 1 1 1 1 1 1 1 1 100 1 
4 1 78.6056 1 1 1 59.2544 1 1 1 1 83.0614 1 57.8067 1 1 1 1 1 1 1 1 94.5997 1 1 1 100 100 
5 1 1 1 1 59.2544 1 57.8989 92.8119 86.1455 1 1 1 1 1 92.5717 93.4678 1 1 1 57.7393 1 53.4124 1 1 1 1 100 
6 1 1 1 1 1 57.8989 1 1 1 1 1 1 1 1 63.791 1 1 59.1423 1 90.2391 1 87.7658 70.5225 1 1 1 100 
7 1 1 1 1 1 92.8119 1 1 64.367 1 1 1 1 1 1 90.9316 1 1 1 1 64.867 1 71.2135 1 1 1 100 
8 1 1 61.0248 1 1 86.1455 1 64.367 1 1 1 1 1 1 1 1 1 1 1 50.6399 1 1 1 1 1 100 100 
9 1 1 1 1 1 1 1 1 1 1 1 1 89.2085 1 1 1 59.0077 97.1495 1 1 96.4966 1 1 1 1 100 100 
10 1 1 1 1 83.0614 1 1 1 1 1 1 1 65.5663 1 52.4255 1 1 1 1 1 1 1 95.9274 65.1568 1 1 1 
11 1 1 1 83.4954 1 1 1 1 1 1 1 1 1 1 1 1 1 1 1 1 1 1 95.3228 1 1 100 1 
12 1 52.3708 1 89.5129 57.8067 1 1 1 1 89.2085 65.5663 1 1 1 1 1 1 1 55.1372 1 1 89.5612 1 1 94.0457 100 1 
13 1 1 1 1 1 1 1 1 1 1 1 1 1 1 1 82.018 1 1 99.2336 1 1 99.3837 1 1 1 1 100 
14 80.564 1 1 77.054 1 92.5717 63.791 1 1 1 52.4255 1 1 1 1 95.2804 97.2408 1 1 1 1 1 1 1 1 1 100 
15 68.013 1 1 69.1559 1 93.4678 1 90.9316 1 1 1 1 1 82.018 95.2804 1 1 97.9792 1 1 1 1 1 1 1 1 1 
16 1 90.817 55.3838 1 1 1 1 1 1 59.0077 1 1 1 1 97.2408 1 1 53.1689 1 1 1 1 76.7055 1 69.7532 1 100 
17 1 1 1 1 1 1 59.1423 1 1 97.1495 1 1 1 1 1 97.9792 53.1689 1 1 1 1 1 1 84.2835 1 100 1 
18 1 50.698 1 1 1 1 1 1 1 1 1 1 55.1372 99.2336 1 1 1 1 1 1 1 1 1 1 95.4664 100 1 
19 90.3971 1 1 1 1 57.7393 90.2391 1 50.6399 1 1 1 1 1 1 1 1 1 1 1 1 51.2059 1 89.1251 1 100 1 
20 1 1 1 1 1 1 1 64.867 1 96.4966 1 1 1 1 1 1 1 1 1 1 1 1 50.4229 1 1 100 100 
21 67.178 1 1 1 94.5997 53.4124 87.7658 1 1 1 1 1 89.5612 99.3837 1 1 1 1 1 51.2059 1 1 85.7697 1 1 1 1 
22 1 1 1 1 1 1 70.5225 71.2135 1 1 95.9274 95.3228 1 1 1 1 76.7055 1 1 1 50.4229 85.7697 1 1 1 100 1 
23 1 1 77.0263 1 1 1 1 1 1 1 65.1568 1 1 1 1 1 1 84.2835 1 89.1251 1 1 1 1 1 1 1 
24 1 1 1 1 1 1 1 1 1 1 1 1 94.0457 1 1 1 69.7532 1 95.4664 1 1 1 1 1 1 100 100 
25 1 1 100 100 100 1 1 1 100 100 1 100 100 1 1 1 1 100 100 100 100 1 100 1 100 1 1 
26 1 1 1 1 100 100 100 100 100 100 1 1 1 100 100 1 100 1 1 1 100 1 1 1 100 1 1 
;

param beta := 
0 84.0189
1 96.7211
2 96.3771
3 70.4441
4 74.1324
5 50.8933
6 56.7336
7 73.9554
8 90.1193
9 70.2958
10 76.9287
11 77.2241
12 70.1951
13 69.3722
14 75.0732
15 58.3794
16 53.7571
17 83.589
18 99.2403
19 76.8915
20 56.9218
21 73.0445
22 67.413
23 81.2156
24 65.0383
25 12.5758
26 12.5235
;

param fs := 
f0 25
;

param fe := 
f0 26
;

param fd := 
f0 10.8405
;

end;
